** Structured C3D20 mesh 3×3×2
*Node
1, 0, 0, 0
2, 0.5, 0, 0
3, 1, 0, 0
4, 1.5, 0, 0
5, 2, 0, 0
6, 2.5, 0, 0
7, 3, 0, 0
8, 0, 0.5, 0
9, 1, 0.5, 0
10, 2, 0.5, 0
11, 3, 0.5, 0
12, 0, 1, 0
13, 0.5, 1, 0
14, 1, 1, 0
15, 1.5, 1, 0
16, 2, 1, 0
17, 2.5, 1, 0
18, 3, 1, 0
19, 0, 1.5, 0
20, 1, 1.5, 0
21, 2, 1.5, 0
22, 3, 1.5, 0
23, 0, 2, 0
24, 0.5, 2, 0
25, 1, 2, 0
26, 1.5, 2, 0
27, 2, 2, 0
28, 2.5, 2, 0
29, 3, 2, 0
30, 0, 2.5, 0
31, 1, 2.5, 0
32, 2, 2.5, 0
33, 3, 2.5, 0
34, 0, 3, 0
35, 0.5, 3, 0
36, 1, 3, 0
37, 1.5, 3, 0
38, 2, 3, 0
39, 2.5, 3, 0
40, 3, 3, 0
41, 0, 0, 0.5
42, 1, 0, 0.5
43, 2, 0, 0.5
44, 3, 0, 0.5
45, 0, 1, 0.5
46, 1, 1, 0.5
47, 2, 1, 0.5
48, 3, 1, 0.5
49, 0, 2, 0.5
50, 1, 2, 0.5
51, 2, 2, 0.5
52, 3, 2, 0.5
53, 0, 3, 0.5
54, 1, 3, 0.5
55, 2, 3, 0.5
56, 3, 3, 0.5
57, 0, 0, 1
58, 0.5, 0, 1
59, 1, 0, 1
60, 1.5, 0, 1
61, 2, 0, 1
62, 2.5, 0, 1
63, 3, 0, 1
64, 0, 0.5, 1
65, 1, 0.5, 1
66, 2, 0.5, 1
67, 3, 0.5, 1
68, 0, 1, 1
69, 0.5, 1, 1
70, 1, 1, 1
71, 1.5, 1, 1
72, 2, 1, 1
73, 2.5, 1, 1
74, 3, 1, 1
75, 0, 1.5, 1
76, 1, 1.5, 1
77, 2, 1.5, 1
78, 3, 1.5, 1
79, 0, 2, 1
80, 0.5, 2, 1
81, 1, 2, 1
82, 1.5, 2, 1
83, 2, 2, 1
84, 2.5, 2, 1
85, 3, 2, 1
86, 0, 2.5, 1
87, 1, 2.5, 1
88, 2, 2.5, 1
89, 3, 2.5, 1
90, 0, 3, 1
91, 0.5, 3, 1
92, 1, 3, 1
93, 1.5, 3, 1
94, 2, 3, 1
95, 2.5, 3, 1
96, 3, 3, 1
97, 0, 0, 1.5
98, 1, 0, 1.5
99, 2, 0, 1.5
100, 3, 0, 1.5
101, 0, 1, 1.5
102, 1, 1, 1.5
103, 2, 1, 1.5
104, 3, 1, 1.5
105, 0, 2, 1.5
106, 1, 2, 1.5
107, 2, 2, 1.5
108, 3, 2, 1.5
109, 0, 3, 1.5
110, 1, 3, 1.5
111, 2, 3, 1.5
112, 3, 3, 1.5
113, 0, 0, 2
114, 0.5, 0, 2
115, 1, 0, 2
116, 1.5, 0, 2
117, 2, 0, 2
118, 2.5, 0, 2
119, 3, 0, 2
120, 0, 0.5, 2
121, 1, 0.5, 2
122, 2, 0.5, 2
123, 3, 0.5, 2
124, 0, 1, 2
125, 0.5, 1, 2
126, 1, 1, 2
127, 1.5, 1, 2
128, 2, 1, 2
129, 2.5, 1, 2
130, 3, 1, 2
131, 0, 1.5, 2
132, 1, 1.5, 2
133, 2, 1.5, 2
134, 3, 1.5, 2
135, 0, 2, 2
136, 0.5, 2, 2
137, 1, 2, 2
138, 1.5, 2, 2
139, 2, 2, 2
140, 2.5, 2, 2
141, 3, 2, 2
142, 0, 2.5, 2
143, 1, 2.5, 2
144, 2, 2.5, 2
145, 3, 2.5, 2
146, 0, 3, 2
147, 0.5, 3, 2
148, 1, 3, 2
149, 1.5, 3, 2
150, 2, 3, 2
151, 2.5, 3, 2
152, 3, 3, 2
*Element, type=C3D20, elset=VOL
1, 1, 3, 14, 12, 57, 59, 70, 68, 2, 9, 13, 8, 58, 65, 69, 64, 41, 42, 46, 45
2, 3, 5, 16, 14, 59, 61, 72, 70, 4, 10, 15, 9, 60, 66, 71, 65, 42, 43, 47, 46
3, 5, 7, 18, 16, 61, 63, 74, 72, 6, 11, 17, 10, 62, 67, 73, 66, 43, 44, 48, 47
4, 12, 14, 25, 23, 68, 70, 81, 79, 13, 20, 24, 19, 69, 76, 80, 75, 45, 46, 50, 49
5, 14, 16, 27, 25, 70, 72, 83, 81, 15, 21, 26, 20, 71, 77, 82, 76, 46, 47, 51, 50
6, 16, 18, 29, 27, 72, 74, 85, 83, 17, 22, 28, 21, 73, 78, 84, 77, 47, 48, 52, 51
7, 23, 25, 36, 34, 79, 81, 92, 90, 24, 31, 35, 30, 80, 87, 91, 86, 49, 50, 54, 53
8, 25, 27, 38, 36, 81, 83, 94, 92, 26, 32, 37, 31, 82, 88, 93, 87, 50, 51, 55, 54
9, 27, 29, 40, 38, 83, 85, 96, 94, 28, 33, 39, 32, 84, 89, 95, 88, 51, 52, 56, 55
10, 57, 59, 70, 68, 113, 115, 126, 124, 58, 65, 69, 64, 114, 121, 125, 120, 97, 98, 102, 101
11, 59, 61, 72, 70, 115, 117, 128, 126, 60, 66, 71, 65, 116, 122, 127, 121, 98, 99, 103, 102
12, 61, 63, 74, 72, 117, 119, 130, 128, 62, 67, 73, 66, 118, 123, 129, 122, 99, 100, 104, 103
13, 68, 70, 81, 79, 124, 126, 137, 135, 69, 76, 80, 75, 125, 132, 136, 131, 101, 102, 106, 105
14, 70, 72, 83, 81, 126, 128, 139, 137, 71, 77, 82, 76, 127, 133, 138, 132, 102, 103, 107, 106
15, 72, 74, 85, 83, 128, 130, 141, 139, 73, 78, 84, 77, 129, 134, 140, 133, 103, 104, 108, 107
16, 79, 81, 92, 90, 135, 137, 148, 146, 80, 87, 91, 86, 136, 143, 147, 142, 105, 106, 110, 109
17, 81, 83, 94, 92, 137, 139, 150, 148, 82, 88, 93, 87, 138, 144, 149, 143, 106, 107, 111, 110
18, 83, 85, 96, 94, 139, 141, 152, 150, 84, 89, 95, 88, 140, 145, 151, 144, 107, 108, 112, 111
